clingo version 5.2.2
Reading from problems/asp/ladder/instances/0015.asp ...
Solving...
Answer: 1
edge(2,4) edge(2,3) edge(3,5) edge(4,6) edge(4,5) edge(5,7) edge(6,8) edge(6,7) edge(7,9) edge(8,10) edge(8,9) edge(9,11) edge(10,12) edge(10,11) edge(11,13) edge(12,14) edge(12,13) edge(13,15) edge(14,16) edge(14,15) edge(15,17) edge(16,18) edge(16,17) edge(17,19) edge(18,20) edge(18,19) edge(19,21) edge(20,22) edge(20,21) edge(21,23) edge(22,24) edge(22,23) edge(23,25) edge(24,26) edge(24,25) edge(25,27) edge(26,28) edge(26,27) edge(27,29) edge(28,30) edge(28,29) edge(29,31) edge(30,32) edge(30,31) edge(31,33) edge(32,34) edge(32,33) edge(33,35) edge(34,36) edge(34,35) edge(35,37) edge(36,38) edge(36,37) edge(37,39) edge(38,40) edge(38,39) edge(39,41) edge(40,42) edge(40,41) edge(41,43) edge(42,44) edge(42,43) edge(43,45) edge(44,46) edge(44,45) edge(45,47) edge(46,48) edge(46,47) edge(47,49) edge(48,50) edge(48,49) edge(49,51) edge(50,52) edge(50,51) edge(51,53) edge(52,54) edge(52,53) edge(53,55) edge(54,56) edge(54,55) edge(55,57) edge(56,58) edge(56,57) edge(57,59) edge(58,60) edge(58,59) edge(59,61) edge(60,62) edge(60,61) edge(61,63) edge(62,64) edge(62,63) edge(63,65) edge(64,66) edge(64,65) edge(65,67) edge(66,68) edge(66,67) edge(67,69) edge(68,70) edge(68,69) edge(69,71) edge(70,72) edge(70,71) edge(71,73) edge(72,74) edge(72,73) edge(73,75) edge(74,76) edge(74,75) edge(75,77) edge(76,78) edge(76,77) edge(77,79) edge(78,80) edge(78,79) edge(79,81) edge(80,82) edge(80,81) edge(81,83) edge(82,84) edge(82,83) edge(83,85) edge(84,86) edge(84,85) edge(85,87) edge(86,88) edge(86,87) edge(87,89) edge(88,90) edge(88,89) edge(89,91) edge(90,92) edge(90,91) edge(91,93) edge(92,94) edge(92,93) edge(93,95) edge(94,96) edge(94,95) edge(95,97) edge(96,98) edge(96,97) edge(97,99) edge(98,100) edge(98,99) edge(99,101) edge(100,102) edge(100,101) edge(101,103) edge(102,104) edge(102,103) edge(103,105) edge(104,106) edge(104,105) edge(105,107) edge(106,108) edge(106,107) edge(107,109) edge(108,110) edge(108,109) edge(109,111) edge(110,112) edge(110,111) edge(111,113) edge(112,114) edge(112,113) edge(113,115) edge(114,116) edge(114,115) edge(115,117) edge(116,118) edge(116,117) edge(117,119) edge(118,120) edge(118,119) edge(119,121) edge(120,122) edge(120,121) edge(121,123) edge(122,124) edge(122,123) edge(123,125) edge(124,126) edge(124,125) edge(125,127) edge(126,128) edge(126,127) edge(127,129) edge(128,130) edge(128,129) edge(129,131) edge(130,132) edge(130,131) edge(131,133) edge(132,134) edge(132,133) edge(133,135) edge(134,136) edge(134,135) edge(135,137) edge(136,138) edge(136,137) edge(137,139) edge(138,140) edge(138,139) edge(139,141) edge(140,142) edge(140,141) edge(141,143) edge(142,144) edge(142,143) edge(143,145) edge(144,146) edge(144,145) edge(145,147) edge(146,148) edge(146,147) edge(147,149) edge(148,150) edge(148,149) edge(149,151) edge(150,152) edge(150,151) edge(151,153) edge(152,154) edge(152,153) edge(153,155) edge(154,156) edge(154,155) edge(155,157) edge(156,158) edge(156,157) edge(157,159) edge(158,160) edge(158,159) edge(159,161) edge(160,162) edge(160,161) edge(161,163) edge(162,164) edge(162,163) edge(163,165) edge(164,166) edge(164,165) edge(165,167) edge(166,168) edge(166,167) edge(167,169) edge(168,170) edge(168,169) edge(169,171) edge(170,172) edge(170,171) edge(171,173) edge(172,174) edge(172,173) edge(173,175) edge(174,176) edge(174,175) edge(175,177) edge(176,178) edge(176,177) edge(177,179) edge(178,180) edge(178,179) edge(179,181) edge(180,182) edge(180,181) edge(181,183) edge(182,184) edge(182,183) edge(183,185) edge(184,186) edge(184,185) edge(185,187) edge(186,188) edge(186,187) edge(187,189) edge(188,190) edge(188,189) edge(189,191) edge(190,192) edge(190,191) edge(191,193) edge(192,194) edge(192,193) edge(193,195) edge(194,196) edge(194,195) edge(195,197) edge(196,198) edge(196,197) edge(197,199) edge(198,200) edge(198,199) edge(199,201) edge(200,202) edge(200,201) edge(201,203) edge(202,204) edge(202,203) edge(203,205) edge(204,206) edge(204,205) edge(205,207) edge(206,208) edge(206,207) edge(207,209) edge(208,210) edge(208,209) edge(209,211) edge(210,212) edge(210,211) edge(211,213) edge(212,214) edge(212,213) edge(213,215) edge(214,216) edge(214,215) edge(215,217) edge(216,218) edge(216,217) edge(217,219) edge(218,220) edge(218,219) edge(219,221) edge(220,222) edge(220,221) edge(221,223) edge(222,224) edge(222,223) edge(223,225) edge(224,226) edge(224,225) edge(225,227) edge(226,228) edge(226,227) edge(227,229) edge(228,230) edge(228,229) edge(229,231) edge(230,232) edge(230,231) edge(231,233) edge(232,234) edge(232,233) edge(233,235) edge(234,236) edge(234,235) edge(235,237) edge(236,238) edge(236,237) edge(237,239) edge(238,240) edge(238,239) edge(239,241) edge(240,242) edge(240,241) edge(241,243) edge(242,244) edge(242,243) edge(243,245) edge(244,246) edge(244,245) edge(245,247) edge(246,248) edge(246,247) edge(247,249) edge(248,250) edge(248,249) edge(249,251) edge(250,252) edge(250,251) edge(251,253) edge(252,254) edge(252,253) edge(253,255) edge(254,256) edge(254,255) edge(255,257) edge(256,258) edge(256,257) edge(257,259) edge(258,260) edge(258,259) edge(259,261) edge(260,262) edge(260,261) edge(261,263) edge(262,264) edge(262,263) edge(263,265) edge(264,266) edge(264,265) edge(265,267) edge(266,268) edge(266,267) edge(267,269) edge(268,270) edge(268,269) edge(269,271) edge(270,272) edge(270,271) edge(271,273) edge(272,274) edge(272,273) edge(273,275) edge(274,276) edge(274,275) edge(275,277) edge(276,278) edge(276,277) edge(277,279) edge(278,280) edge(278,279) edge(279,281) edge(280,282) edge(280,281) edge(281,283) edge(282,284) edge(282,283) edge(283,285) edge(284,286) edge(284,285) edge(285,287) edge(286,288) edge(286,287) edge(287,289) edge(288,290) edge(288,289) edge(289,291) edge(290,292) edge(290,291) edge(291,293) edge(292,294) edge(292,293) edge(293,295) edge(294,296) edge(294,295) edge(295,297) edge(296,298) edge(296,297) edge(297,299) edge(298,300) edge(298,299) edge(299,301) edge(300,302) edge(300,301) edge(301,303) edge(302,304) edge(302,303) edge(303,305) edge(304,306) edge(304,305) edge(305,307) edge(306,308) edge(306,307) edge(307,309) edge(308,310) edge(308,309) edge(309,311) edge(310,312) edge(310,311) edge(311,313) edge(312,314) edge(312,313) edge(313,315) edge(314,316) edge(314,315) edge(315,317) edge(316,318) edge(316,317) edge(317,319) edge(318,320) edge(318,319) edge(319,321) edge(320,322) edge(320,321) edge(321,323) edge(322,324) edge(322,323) edge(323,325) edge(324,326) edge(324,325) edge(325,327) edge(326,328) edge(326,327) edge(327,329) edge(328,330) edge(328,329) edge(329,331) edge(330,332) edge(330,331) edge(331,333) edge(332,334) edge(332,333) edge(333,335) edge(334,336) edge(334,335) edge(335,337) edge(336,338) edge(336,337) edge(337,339) edge(338,340) edge(338,339) edge(339,341) edge(340,342) edge(340,341) edge(341,343) edge(342,344) edge(342,343) edge(343,345) edge(344,346) edge(344,345) edge(345,347) edge(346,348) edge(346,347) edge(347,349) edge(348,350) edge(348,349) edge(349,351) edge(350,352) edge(350,351) edge(351,353) edge(352,354) edge(352,353) edge(353,355) edge(354,356) edge(354,355) edge(355,357) edge(356,358) edge(356,357) edge(357,359) edge(358,360) edge(358,359) edge(359,361) edge(360,361)
SATISFIABLE

Models       : 1
Calls        : 1
Time         : 0.008s (Solving: 0.00s 1st Model: 0.00s Unsat: 0.00s)
CPU Time     : 0.008s
